&CONTROL
  calculation = '{{ calculation }}'
  prefix = '{{ prefix }}'
  pseudo_dir = '{{ pseudo_dir }}'
  outdir = '{{ outdir }}'
/
&SYSTEM
  ibrav = 2
  celldm(1) = {{ lattice_parameter }}
  nat = 2
  ntyp = 1
  ecutwfc = {{ ecutwfc }}
/
&ELECTRONS
  conv_thr = {{ conv_thr }}
/
ATOMIC_SPECIES
Si 28.0855 Si.upf
ATOMIC_POSITIONS crystal
Si 0.00 0.00 0.00
Si 0.25 0.25 0.25
K_POINTS automatic
{{ kpoints }}
